;; translated from ./ctigar/nested3.c.vmt
;; original benchmark available at: https://es-static.fbk.eu/people/griggio/ic3ia/index.html
;; author: Alberto Griggio <griggio@fbk.eu>
(set-logic HORN)
(declare-fun state (Bool Bool Bool Bool Int Int Int Int) Bool)
(assert (forall ((|.s.0| Bool) (|.s.1| Bool) (|.s.0.next| Bool) (|.s.1.next| Bool) (|.s.2.next| Bool) (|.s.3.next| Bool) (|main.i.next| Int) (|main.i| Int) (|main.k.next| Int) (|main.k| Int) (|main.l.next| Int) (|main.l| Int) (|main.n.next| Int) (|main.n| Int) (|.s.3| Bool) (|.s.2| Bool)) (=> (let ((.def_17 (not .s.3)))
(let ((.def_14 (not .s.2)))
(let ((.def_10 (not .s.1)))
(let ((.def_12 (and .def_10 .s.0)))
(let ((.def_15 (and .def_12 .def_14)))
(let ((.def_18 (and .def_15 .def_17)))
.def_18)))))) (state |.s.1| |.s.0| |.s.2| |.s.3| |main.n| |main.l| |main.k| |main.i|))))
(assert (forall ((|.s.0| Bool) (|.s.1| Bool) (|.s.0.next| Bool) (|.s.1.next| Bool) (|.s.2.next| Bool) (|.s.3.next| Bool) (|main.i.next| Int) (|main.i| Int) (|main.k.next| Int) (|main.k| Int) (|main.l.next| Int) (|main.l| Int) (|main.n.next| Int) (|main.n| Int) (|.s.3| Bool) (|.s.2| Bool)) (=> (and (state |.s.1| |.s.0| |.s.2| |.s.3| |main.n| |main.l| |main.k| |main.i|) (let ((.def_19 (not .s.0)))
(let ((.def_10 (not .s.1)))
(let ((.def_62 (and .def_10 .def_19)))
(let ((.def_14 (not .s.2)))
(let ((.def_111 (and .def_14 .def_62)))
(let ((.def_17 (not .s.3)))
(let ((.def_213 (and .def_17 .def_111)))
(let ((.def_214 (not .def_213)))
(let ((.def_43 (not .s.0.next)))
(let ((.def_41 (not .s.1.next)))
(let ((.def_44 (and .def_41 .def_43)))
(let ((.def_39 (not .s.2.next)))
(let ((.def_45 (and .def_39 .def_44)))
(let ((.def_37 (not .s.3.next)))
(let ((.def_46 (and .def_37 .def_45)))
(let ((.def_35 (= main.i main.i.next)))
(let ((.def_47 (and .def_35 .def_46)))
(let ((.def_32 (= main.k main.k.next)))
(let ((.def_48 (and .def_32 .def_47)))
(let ((.def_29 (= main.l main.l.next)))
(let ((.def_49 (and .def_29 .def_48)))
(let ((.def_26 (= main.n main.n.next)))
(let ((.def_50 (and .def_26 .def_49)))
(let ((.def_215 (or .def_50 .def_214)))
(let ((.def_83 (and .s.1.next .s.0.next)))
(let ((.def_84 (and .def_39 .def_83)))
(let ((.def_207 (and .def_37 .def_84)))
(let ((.def_208 (and .def_35 .def_207)))
(let ((.def_209 (and .def_32 .def_208)))
(let ((.def_210 (and .def_29 .def_209)))
(let ((.def_211 (and .def_26 .def_210)))
(let ((.def_195 (<= main.l 0)))
(let ((.def_204 (not .def_195)))
(let ((.def_12 (and .def_10 .s.0)))
(let ((.def_15 (and .def_12 .def_14)))
(let ((.def_18 (and .def_15 .def_17)))
(let ((.def_205 (and .def_18 .def_204)))
(let ((.def_206 (not .def_205)))
(let ((.def_212 (or .def_206 .def_211)))
(let ((.def_216 (and .def_212 .def_215)))
(let ((.def_94 (and .s.1.next .def_43)))
(let ((.def_104 (and .def_39 .def_94)))
(let ((.def_198 (and .def_37 .def_104)))
(let ((.def_199 (and .def_35 .def_198)))
(let ((.def_200 (and .def_32 .def_199)))
(let ((.def_201 (and .def_29 .def_200)))
(let ((.def_202 (and .def_26 .def_201)))
(let ((.def_196 (and .def_18 .def_195)))
(let ((.def_197 (not .def_196)))
(let ((.def_203 (or .def_197 .def_202)))
(let ((.def_217 (and .def_203 .def_216)))
(let ((.def_20 (and .s.1 .def_19)))
(let ((.def_91 (and .def_14 .def_20)))
(let ((.def_191 (and .def_17 .def_91)))
(let ((.def_192 (not .def_191)))
(let ((.def_193 (or .def_50 .def_192)))
(let ((.def_218 (and .def_193 .def_217)))
(let ((.def_185 (= main.k.next 1)))
(let ((.def_55 (and .s.2.next .def_44)))
(let ((.def_56 (and .def_37 .def_55)))
(let ((.def_186 (and .def_56 .def_185)))
(let ((.def_187 (and .def_35 .def_186)))
(let ((.def_188 (and .def_29 .def_187)))
(let ((.def_189 (and .def_26 .def_188)))
(let ((.def_79 (and .s.1 .s.0)))
(let ((.def_80 (and .def_14 .def_79)))
(let ((.def_183 (and .def_17 .def_80)))
(let ((.def_184 (not .def_183)))
(let ((.def_190 (or .def_184 .def_189)))
(let ((.def_219 (and .def_190 .def_218)))
(let ((.def_95 (and .s.2.next .def_94)))
(let ((.def_177 (and .s.3.next .def_95)))
(let ((.def_178 (and .def_35 .def_177)))
(let ((.def_179 (and .def_32 .def_178)))
(let ((.def_180 (and .def_29 .def_179)))
(let ((.def_181 (and .def_26 .def_180)))
(let ((.def_165 (<= main.n main.k)))
(let ((.def_63 (and .s.2 .def_62)))
(let ((.def_164 (and .def_17 .def_63)))
(let ((.def_175 (and .def_164 .def_165)))
(let ((.def_176 (not .def_175)))
(let ((.def_182 (or .def_176 .def_181)))
(let ((.def_220 (and .def_182 .def_219)))
(let ((.def_66 (and .def_41 .s.0.next)))
(let ((.def_67 (and .s.2.next .def_66)))
(let ((.def_169 (and .def_37 .def_67)))
(let ((.def_170 (and .def_35 .def_169)))
(let ((.def_171 (and .def_32 .def_170)))
(let ((.def_172 (and .def_29 .def_171)))
(let ((.def_173 (and .def_26 .def_172)))
(let ((.def_166 (not .def_165)))
(let ((.def_167 (and .def_164 .def_166)))
(let ((.def_168 (not .def_167)))
(let ((.def_174 (or .def_168 .def_173)))
(let ((.def_221 (and .def_174 .def_220)))
(let ((.def_158 (= main.l main.i.next)))
(let ((.def_96 (and .def_37 .def_95)))
(let ((.def_159 (and .def_96 .def_158)))
(let ((.def_160 (and .def_32 .def_159)))
(let ((.def_161 (and .def_29 .def_160)))
(let ((.def_162 (and .def_26 .def_161)))
(let ((.def_52 (and .def_12 .s.2)))
(let ((.def_156 (and .def_17 .def_52)))
(let ((.def_157 (not .def_156)))
(let ((.def_163 (or .def_157 .def_162)))
(let ((.def_222 (and .def_163 .def_221)))
(let ((.def_150 (and .s.3.next .def_55)))
(let ((.def_151 (and .def_35 .def_150)))
(let ((.def_152 (and .def_32 .def_151)))
(let ((.def_153 (and .def_29 .def_152)))
(let ((.def_154 (and .def_26 .def_153)))
(let ((.def_137 (<= main.n main.i)))
(let ((.def_21 (and .s.2 .def_20)))
(let ((.def_136 (and .def_17 .def_21)))
(let ((.def_148 (and .def_136 .def_137)))
(let ((.def_149 (not .def_148)))
(let ((.def_155 (or .def_149 .def_154)))
(let ((.def_223 (and .def_155 .def_222)))
(let ((.def_141 (and .s.2.next .def_83)))
(let ((.def_142 (and .def_37 .def_141)))
(let ((.def_143 (and .def_35 .def_142)))
(let ((.def_144 (and .def_32 .def_143)))
(let ((.def_145 (and .def_29 .def_144)))
(let ((.def_146 (and .def_26 .def_145)))
(let ((.def_138 (not .def_137)))
(let ((.def_139 (and .def_136 .def_138)))
(let ((.def_140 (not .def_139)))
(let ((.def_147 (or .def_140 .def_146)))
(let ((.def_224 (and .def_147 .def_223)))
(let ((.def_123 (<= 1 main.i)))
(let ((.def_132 (not .def_123)))
(let ((.def_121 (and .s.2 .def_79)))
(let ((.def_122 (and .def_17 .def_121)))
(let ((.def_133 (and .def_122 .def_132)))
(let ((.def_134 (not .def_133)))
(let ((.def_85 (and .s.3.next .def_84)))
(let ((.def_86 (and .def_35 .def_85)))
(let ((.def_87 (and .def_32 .def_86)))
(let ((.def_88 (and .def_29 .def_87)))
(let ((.def_89 (and .def_26 .def_88)))
(let ((.def_135 (or .def_89 .def_134)))
(let ((.def_225 (and .def_135 .def_224)))
(let ((.def_126 (and .s.3.next .def_45)))
(let ((.def_127 (and .def_35 .def_126)))
(let ((.def_128 (and .def_32 .def_127)))
(let ((.def_129 (and .def_29 .def_128)))
(let ((.def_130 (and .def_26 .def_129)))
(let ((.def_124 (and .def_122 .def_123)))
(let ((.def_125 (not .def_124)))
(let ((.def_131 (or .def_125 .def_130)))
(let ((.def_226 (and .def_131 .def_225)))
(let ((.def_114 (and .def_39 .def_66)))
(let ((.def_115 (and .s.3.next .def_114)))
(let ((.def_116 (and .def_35 .def_115)))
(let ((.def_117 (and .def_32 .def_116)))
(let ((.def_118 (and .def_29 .def_117)))
(let ((.def_119 (and .def_26 .def_118)))
(let ((.def_112 (and .s.3 .def_111)))
(let ((.def_113 (not .def_112)))
(let ((.def_120 (or .def_113 .def_119)))
(let ((.def_227 (and .def_120 .def_226)))
(let ((.def_105 (and .s.3.next .def_104)))
(let ((.def_71 (* (- 1) main.k.next)))
(let ((.def_72 (+ main.k .def_71)))
(let ((.def_73 (= .def_72 (- 1))))
(let ((.def_106 (and .def_73 .def_105)))
(let ((.def_107 (and .def_35 .def_106)))
(let ((.def_108 (and .def_29 .def_107)))
(let ((.def_109 (and .def_26 .def_108)))
(let ((.def_102 (and .def_15 .s.3)))
(let ((.def_103 (not .def_102)))
(let ((.def_110 (or .def_103 .def_109)))
(let ((.def_228 (and .def_110 .def_227)))
(let ((.def_97 (and .def_35 .def_96)))
(let ((.def_98 (and .def_32 .def_97)))
(let ((.def_99 (and .def_29 .def_98)))
(let ((.def_100 (and .def_26 .def_99)))
(let ((.def_92 (and .s.3 .def_91)))
(let ((.def_93 (not .def_92)))
(let ((.def_101 (or .def_93 .def_100)))
(let ((.def_229 (and .def_101 .def_228)))
(let ((.def_81 (and .s.3 .def_80)))
(let ((.def_82 (not .def_81)))
(let ((.def_90 (or .def_82 .def_89)))
(let ((.def_230 (and .def_90 .def_229)))
(let ((.def_68 (and .s.3.next .def_67)))
(let ((.def_74 (and .def_68 .def_73)))
(let ((.def_75 (and .def_35 .def_74)))
(let ((.def_76 (and .def_29 .def_75)))
(let ((.def_77 (and .def_26 .def_76)))
(let ((.def_64 (and .s.3 .def_63)))
(let ((.def_65 (not .def_64)))
(let ((.def_78 (or .def_65 .def_77)))
(let ((.def_231 (and .def_78 .def_230)))
(let ((.def_57 (and .def_35 .def_56)))
(let ((.def_58 (and .def_32 .def_57)))
(let ((.def_59 (and .def_29 .def_58)))
(let ((.def_60 (and .def_26 .def_59)))
(let ((.def_53 (and .s.3 .def_52)))
(let ((.def_54 (not .def_53)))
(let ((.def_61 (or .def_54 .def_60)))
(let ((.def_232 (and .def_61 .def_231)))
(let ((.def_22 (and .s.3 .def_21)))
(let ((.def_23 (not .def_22)))
(let ((.def_51 (or .def_23 .def_50)))
(let ((.def_233 (and .def_51 .def_232)))
.def_233))))))))))))))))))))))))))))))))))))))))))))))))))))))))))))))))))))))))))))))))))))))))))))))))))))))))))))))))))))))))))))))))))))))))))))))))))))))))))))))))))))))))))))))))))))))))))))))))))))))))))))))) (state |.s.1.next| |.s.0.next| |.s.2.next| |.s.3.next| |main.n.next| |main.l.next| |main.k.next| |main.i.next|))))
(assert (forall ((|.s.0| Bool) (|.s.1| Bool) (|.s.0.next| Bool) (|.s.1.next| Bool) (|.s.2.next| Bool) (|.s.3.next| Bool) (|main.i.next| Int) (|main.i| Int) (|main.k.next| Int) (|main.k| Int) (|main.l.next| Int) (|main.l| Int) (|main.n.next| Int) (|main.n| Int) (|.s.3| Bool) (|.s.2| Bool)) (=> (state |.s.1| |.s.0| |.s.2| |.s.3| |main.n| |main.l| |main.k| |main.i|) (let ((.def_79 (and .s.1 .s.0)))
(let ((.def_14 (not .s.2)))
(let ((.def_80 (and .def_14 .def_79)))
(let ((.def_81 (and .s.3 .def_80)))
(let ((.def_82 (not .def_81)))
.def_82))))))))
(check-sat)
